91
77
70
15
17
60
51
14
85
71
97
69
32
14
99
68
21
25
7
50
73
13
33
28
58
4
79
70
95
41
57
26
86
86
58
51
89
51
12
15
80
77
77
56
18
83
1
91
33
85
8
94
19
77
91
57
87
86
23
30
63
57
56
44
92
18
59
32
76
28
5
61
35
47
3
13
6
73
96
85
15
38
20
41
12
48
58
65
35
24
32
47
2
58
1
57
91
7
62
73
